RT is False
Default write of storage_offers_DA.csv just to have a file (but constraint should be inactive)
Reading model...
...model read.
creating competitive generators file...
...competitive generators recorded.
Loading data...
.. day-ahead data read.
Compiling instance...
...instance created.
Creating Offer Mitigation (model will solve as dispatch if TRUE)...
NOTE: storage offers will not be mitigated
...storage offer mitigation file created
Converting model to MPEC...
...converted
NOTE: initial MIP solve with only storage competitive to get feasible solution
Solving...

Welcome to IBM(R) ILOG(R) CPLEX(R) Interactive Optimizer 12.9.0.0
  with Simplex, Mixed Integer & Barrier Optimizers
5725-A06 5725-A29 5724-Y48 5724-Y49 5724-Y54 5724-Y55 5655-Y21
Copyright IBM Corp. 1988, 2019.  All Rights Reserved.

Type 'help' for a list of available commands.
Type 'help' followed by a command name for more
information on commands.

CPLEX> Logfile 'cplex.log' closed.
Logfile 'C:\Users\Luke\Desktop\test919\logs\tmp5b4rljl2.cplex.log' open.
CPLEX> New value for parallel optimization mode: -1
CPLEX> New value for mixed integer optimality gap tolerance: 0.01
CPLEX> New value for integrality tolerance: 1e-09
CPLEX> New value for feasibility tolerance: 0.01
CPLEX> New value for deterministic time limit in ticks: 75000
CPLEX> Problem 'C:\Users\Luke\Desktop\test919\logs\tmpfch9nlef.pyomo.lp' read.
Read time = 0.20 sec. (14.73 ticks)
CPLEX> Problem name         : C:\Users\Luke\Desktop\test919\logs\tmpfch9nlef.pyomo.lp
Objective sense      : Maximize
Variables            :   53805  [Nneg: 1,  Box: 22000,  Free: 4464,
                                 Binary: 27340]
Objective nonzeros   :    8980
Linear constraints   :  123205  [Less: 41346,  Greater: 59096,  Equal: 22763]
  Nonzeros           :  291801
  RHS nonzeros       :   67491

Variables            : Min LB: -5000.000        Max UB: 1000000.       
Objective nonzeros   : Min   : 0.4000000        Max   : 722.0000       
Linear constraints   :
  Nonzeros           : Min   : 0.4000000        Max   : 1000000.       
  RHS nonzeros       : Min   : 0.4000000        Max   : 1000000.       
CPLEX> CPXPARAM_Parallel                                -1
CPXPARAM_Simplex_Tolerances_Feasibility          0.01
CPXPARAM_DetTimeLimit                            75000
CPXPARAM_MIP_Tolerances_MIPGap                   0.01
CPXPARAM_MIP_Tolerances_Integrality              1.0000000000000001e-09
Tried aggregator 3 times.
MIP Presolve eliminated 88666 rows and 18966 columns.
MIP Presolve added 3404 rows and 0 columns.
MIP Presolve modified 24880 coefficients.
Aggregator did 13014 substitutions.
Reduced MIP has 24929 rows, 21269 columns, and 71140 nonzeros.
Reduced MIP has 8400 binaries, 0 generals, 0 SOSs, and 0 indicators.
Presolve time = 0.23 sec. (176.48 ticks)
Probing fixed 377 vars, tightened 2775 bounds.
Probing time = 1.45 sec. (862.49 ticks)
Tried aggregator 2 times.
MIP Presolve eliminated 853 rows and 755 columns.
MIP Presolve modified 2192 coefficients.
Aggregator did 35 substitutions.
Reduced MIP has 24041 rows, 20479 columns, and 68569 nonzeros.
Reduced MIP has 8023 binaries, 0 generals, 0 SOSs, and 0 indicators.
Presolve time = 0.09 sec. (71.44 ticks)
Probing time = 0.03 sec. (16.09 ticks)
Clique table members: 6286.
MIP emphasis: balance optimality and feasibility.
MIP search method: dynamic search.
Parallel mode: opportunistic, using up to 24 threads.
Root relaxation solution time = 0.38 sec. (297.50 ticks)

        Nodes                                         Cuts/
   Node  Left     Objective  IInf  Best Integer    Best Bound    ItCnt     Gap

      0     0     7329.8538  1632                   7329.8538     6816         
      0     0     7318.6490    27                    Cuts: 33     6833         
      0     0     7281.2014    30                    Cuts: 33     6849         
      0     0     7268.5931    31                    Cuts: 17     6859         
      0     0     7265.2938    28                    Cuts: 16     6865         
      0     0     7265.2938    27                     Cuts: 7     6869         
      0     0     7265.2938    25                     Cuts: 3     6885         
      0    21    infeasible                          Fract: 1     7073         
Elapsed time = 8.05 sec. (5429.44 ticks, tree = 0.02 MB, solutions = 0)
*   415+  239                         7088.4351     7223.2847             1.90%
*   494+  196                         7114.9460     7223.2847             1.52%
*   500   238      integral     0     7126.4280     7223.2847     8526    1.36%
*   531   237      integral     0     7150.4088     7223.2847     8481    1.02%
*   534   258      integral     0     7166.0817     7223.2847     8011    0.80%

Flow cuts applied:  35
Mixed integer rounding cuts applied:  2
Gomory fractional cuts applied:  9

Root node processing (before b&c):
  Real time             =    7.69 sec. (5414.43 ticks)
Parallel b&c, 24 threads:
  Real time             =    1.33 sec. (434.72 ticks)
  Sync time (average)   =    0.15 sec.
  Wait time (average)   =    0.00 sec.
                          ------------
Total (root+branch&cut) =    9.02 sec. (5849.15 ticks)

Solution pool: 13 solutions saved.

MIP - Integer optimal, tolerance (0.01/1e-06):  Objective =  7.1660817027e+03
Current MIP best bound =  7.2232846703e+03 (gap = 57.203, 0.80%)
Solution time =    9.02 sec.  Iterations = 9089  Nodes = 613 (35)
Deterministic time = 5849.30 ticks  (648.84 ticks/sec)

CPLEX> Incumbent solution written to file 'C:\Users\Luke\Desktop\test919\logs\tmper2x9pv1.cplex.sol'.
CPLEX> NOTE: no warmstart specified for MIP iteration, default behavior is true
NOTE: resolving with all competitive generators using storage-only solution to warmstart
Solving...

Welcome to IBM(R) ILOG(R) CPLEX(R) Interactive Optimizer 12.9.0.0
  with Simplex, Mixed Integer & Barrier Optimizers
5725-A06 5725-A29 5724-Y48 5724-Y49 5724-Y54 5724-Y55 5655-Y21
Copyright IBM Corp. 1988, 2019.  All Rights Reserved.

Type 'help' for a list of available commands.
Type 'help' followed by a command name for more
information on commands.

CPLEX> Logfile 'cplex.log' closed.
Logfile 'C:\Users\Luke\Desktop\test919\logs\tmp_5kc5f3z.cplex.log' open.
CPLEX> New value for parallel optimization mode: -1
CPLEX> New value for mixed integer optimality gap tolerance: 0.01
CPLEX> New value for integrality tolerance: 1e-09
CPLEX> New value for feasibility tolerance: 0.01
CPLEX> New value for deterministic time limit in ticks: 75000
CPLEX> Problem 'C:\Users\Luke\Desktop\test919\logs\tmppj8k33_u.pyomo.lp' read.
Read time = 0.19 sec. (14.75 ticks)
CPLEX> MIP start file 'C:\Users\Luke\Desktop\test919\logs\tmp51hd7bro.cplex.mst' read.
CPLEX> Problem name         : C:\Users\Luke\Desktop\test919\logs\tmppj8k33_u.pyomo.lp
Objective sense      : Maximize
Variables            :   54525  [Nneg: 1,  Box: 22720,  Free: 4464,
                                 Binary: 27340]
Objective nonzeros   :    9700
Linear constraints   :  123205  [Less: 41346,  Greater: 59096,  Equal: 22763]
  Nonzeros           :  291801
  RHS nonzeros       :   67491

Variables            : Min LB: -5000.000        Max UB: 1000000.       
Objective nonzeros   : Min   : 0.4000000        Max   : 722.0000       
Linear constraints   :
  Nonzeros           : Min   : 0.4000000        Max   : 1000000.       
  RHS nonzeros       : Min   : 0.4000000        Max   : 1000000.       
CPLEX> CPXPARAM_Parallel                                -1
CPXPARAM_Simplex_Tolerances_Feasibility          0.01
CPXPARAM_DetTimeLimit                            75000
CPXPARAM_MIP_Tolerances_MIPGap                   0.01
CPXPARAM_MIP_Tolerances_Integrality              1.0000000000000001e-09
Warning:  No solution found from 1 MIP starts.
Retaining values of one MIP start for possible repair.
Tried aggregator 3 times.
MIP Presolve eliminated 88666 rows and 19686 columns.
MIP Presolve added 3404 rows and 0 columns.
MIP Presolve modified 24880 coefficients.
Aggregator did 13014 substitutions.
Reduced MIP has 24929 rows, 21269 columns, and 71140 nonzeros.
Reduced MIP has 8400 binaries, 0 generals, 0 SOSs, and 0 indicators.
Presolve time = 0.23 sec. (176.85 ticks)
Probing fixed 377 vars, tightened 2775 bounds.
Probing time = 1.41 sec. (862.49 ticks)
Tried aggregator 2 times.
MIP Presolve eliminated 853 rows and 755 columns.
MIP Presolve modified 2192 coefficients.
Aggregator did 35 substitutions.
Reduced MIP has 24041 rows, 20479 columns, and 68569 nonzeros.
Reduced MIP has 8023 binaries, 0 generals, 0 SOSs, and 0 indicators.
Presolve time = 0.11 sec. (71.44 ticks)
Probing time = 0.03 sec. (16.09 ticks)
Clique table members: 6286.
MIP emphasis: balance optimality and feasibility.
MIP search method: dynamic search.
Parallel mode: opportunistic, using up to 24 threads.
Root relaxation solution time = 0.39 sec. (297.50 ticks)

        Nodes                                         Cuts/
   Node  Left     Objective  IInf  Best Integer    Best Bound    ItCnt     Gap

      0     0     7329.8538  1632                   7329.8538     6816         
*     0+    0                         4678.8858     7329.8538            56.66%
      0     0     7318.6490    27     4678.8858      Cuts: 33     6833   56.42%
      0     0     7291.4353    23     4678.8858      Cuts: 50     6859   55.84%
      0     0     7265.2938    18     4678.8858      Cuts: 36     6877   55.28%
*     0+    0                         5906.3372     7265.2938            23.01%
      0     0     7265.2938    17     5906.3372      Cuts: 10     6886   23.01%
      0     0     7265.2938    15     5906.3372       Cuts: 7     6903   23.01%
Repair heuristic found nothing.
      0    16        cutoff           5906.3372   Impl Bds: 2     6975   22.85%
Elapsed time = 6.63 sec. (3992.31 ticks, tree = 0.02 MB, solutions = 2)
*    54+   19                         7163.6643     7231.2975             0.94%
*    59+   13                         7178.7515     7222.5755             0.61%
    237   115     7130.5257     1     7178.7515     7222.5755     7496    0.61%

Implied bound cuts applied:  2
Flow cuts applied:  27
Mixed integer rounding cuts applied:  4
Gomory fractional cuts applied:  10

Root node processing (before b&c):
  Real time             =    6.03 sec. (3971.57 ticks)
Parallel b&c, 24 threads:
  Real time             =    1.28 sec. (355.89 ticks)
  Sync time (average)   =    0.20 sec.
  Wait time (average)   =    0.00 sec.
                          ------------
Total (root+branch&cut) =    7.31 sec. (4327.45 ticks)

Solution pool: 7 solutions saved.

MIP - Integer optimal, tolerance (0.01/1e-06):  Objective =  7.1787514709e+03
Current MIP best bound =  7.2208094567e+03 (gap = 42.058, 0.59%)
Solution time =    7.31 sec.  Iterations = 8244  Nodes = 274 (55)
Deterministic time = 4327.61 ticks  (591.85 ticks/sec)

CPLEX> Incumbent solution written to file 'C:\Users\Luke\Desktop\test919\logs\tmp2mp14oys.cplex.sol'.
CPLEX> Exporting results... 
